certificates/rado_a13_c197_N25.cnf
c Rad2 upper bound instance: x1 + 13*x2 - x3 = 197, interval [1,25]
p cnf 25 96
1 12 16 0
-1 -12 -16 0
1 17 25 0
-1 -17 -25 0
2 13 16 0
-2 -13 -16 0
1 3 15 0
-1 -3 -15 0
3 14 16 0
-3 -14 -16 0
2 4 15 0
-2 -4 -15 0
4 15 16 0
-4 -15 -16 0
3 5 15 0
-3 -5 -15 0
5 16 0
-5 -16 0
4 6 15 0
-4 -6 -15 0
6 16 17 0
-6 -16 -17 0
5 7 15 0
-5 -7 -15 0
7 16 18 0
-7 -16 -18 0
6 8 15 0
-6 -8 -15 0
8 16 19 0
-8 -16 -19 0
7 9 15 0
-7 -9 -15 0
9 16 20 0
-9 -16 -20 0
8 10 15 0
-8 -10 -15 0
10 16 21 0
-10 -16 -21 0
9 11 15 0
-9 -11 -15 0
11 16 22 0
-11 -16 -22 0
10 12 15 0
-10 -12 -15 0
12 16 23 0
-12 -16 -23 0
11 13 15 0
-11 -13 -15 0
13 16 24 0
-13 -16 -24 0
12 14 15 0
-12 -14 -15 0
14 16 25 0
-14 -16 -25 0
13 15 0
-13 -15 0
1 14 16 0
-1 -14 -16 0
14 15 16 0
-14 -15 -16 0
2 14 17 0
-2 -14 -17 0
15 17 0
-15 -17 0
3 14 18 0
-3 -14 -18 0
15 16 18 0
-15 -16 -18 0
4 14 19 0
-4 -14 -19 0
15 17 19 0
-15 -17 -19 0
5 14 20 0
-5 -14 -20 0
15 18 20 0
-15 -18 -20 0
6 14 21 0
-6 -14 -21 0
15 19 21 0
-15 -19 -21 0
7 14 22 0
-7 -14 -22 0
15 20 22 0
-15 -20 -22 0
8 14 23 0
-8 -14 -23 0
15 21 23 0
-15 -21 -23 0
9 14 24 0
-9 -14 -24 0
15 22 24 0
-15 -22 -24 0
10 14 25 0
-10 -14 -25 0
15 23 25 0
-15 -23 -25 0
