certificates/rado_a13_c197_N25.drat
15 -24 -25 0
-18 22 -15 0
16 18 -15 0
-24 -25 0
d 15 -24 -25 0
-16 -25 0
16 18 0
d 16 15 18 0
d -15 18 16 0
-25 0
16 0
-5 0
-18 0
15 0
-13 0
-17 0
-4 0
-14 0
1 0
2 0
19 0
3 0
20 0
10 0
0
